(set-info :smt-lib-version 2.6)
(set-logic UF)
(set-info :source |Benchmarks from the paper: "Extending Sledgehammer with SMT Solvers" by Jasmin Blanchette, Sascha Bohme, and Lawrence C. Paulson, CADE 2011.  Translated to SMT2 by Andrew Reynolds and Morgan Deters.|)
(set-info :category "industrial")
(set-info :status unknown)
(declare-sort S1 0)
(declare-sort S2 0)
(declare-sort S3 0)
(declare-sort S4 0)
(declare-sort S5 0)
(declare-sort S6 0)
(declare-sort S7 0)
(declare-sort S8 0)
(declare-sort S9 0)
(declare-sort S10 0)
(declare-sort S11 0)
(declare-sort S12 0)
(declare-sort S13 0)
(declare-sort S14 0)
(declare-fun f1 () S1)
(declare-fun f2 () S1)
(declare-fun f3 (S2 S3) S3)
(declare-fun f4 () S2)
(declare-fun f5 (S4 S3) S2)
(declare-fun f6 () S4)
(declare-fun f7 () S4)
(declare-fun f8 (S5 S6) S3)
(declare-fun f9 () S5)
(declare-fun f10 (S7 S6) S6)
(declare-fun f11 () S7)
(declare-fun f12 () S7)
(declare-fun f13 () S6)
(declare-fun f14 () S3)
(declare-fun f15 (S8 S9) S3)
(declare-fun f16 () S8)
(declare-fun f17 () S9)
(declare-fun f18 () S3)
(declare-fun f19 () S2)
(declare-fun f20 () S7)
(declare-fun f21 (S10 S6) S9)
(declare-fun f22 () S10)
(declare-fun f23 (S11 S6) S7)
(declare-fun f24 () S11)
(declare-fun f25 () S9)
(declare-fun f26 () S6)
(declare-fun f27 (S9) S12)
(declare-fun f28 (S3) S12)
(declare-fun f29 (S13 S9) S9)
(declare-fun f30 (S14 S9) S13)
(declare-fun f31 () S14)
(assert (not (= f1 f2)))
(assert (not false))
(assert (= (f3 f4 (f3 (f5 f6 (f3 (f5 f7 (f8 f9 (f10 f11 (f10 f12 f13)))) f14)) (f15 f16 f17))) f18))
(assert (= (f3 f19 (f3 (f5 f6 (f3 (f5 f7 (f8 f9 (f10 f11 (f10 f12 f13)))) f14)) (f15 f16 f17))) f18))
(assert (forall ((?v0 S9)) (= (f3 f19 (f3 (f5 f7 (f3 (f5 f7 (f8 f9 (f10 f11 (f10 f12 f13)))) (f15 f16 ?v0))) f14)) f18)))
(assert (let ((?v_0 (f10 f12 f13))) (= (f3 f4 (f3 (f5 f7 (f3 (f5 f6 (f8 f9 (f10 f12 ?v_0))) (f8 f9 (f10 f11 ?v_0)))) f14)) f18)))
(assert (= (f3 f4 (f3 (f5 f6 f14) (f8 f9 (f10 f11 (f10 f12 f13))))) f18))
(assert (= (f3 f19 (f3 (f5 f7 (f8 f9 (f10 f11 (f10 f12 f13)))) f14)) f18))
(assert (forall ((?v0 S3)) (let ((?v_0 (f5 f7 (f8 f9 (f10 f11 (f10 f12 f13)))))) (= (f3 f19 (f3 ?v_0 ?v0)) (f3 (f5 f7 (f3 ?v_0 (f3 f19 ?v0))) (f3 f4 ?v0))))))
(assert (not (= (f3 (f5 f6 f14) (f8 f9 (f10 f11 (f10 f12 f13)))) f18)))
(assert (let ((?v_0 (f8 f9 (f10 f11 (f10 f12 f13))))) (not (= (f3 (f5 f6 f14) ?v_0) ?v_0))))
(assert (not (= (f3 f4 (f8 f9 (f10 f11 (f10 f12 f13)))) f18)))
(assert (forall ((?v0 S3) (?v1 S3) (?v2 S3)) (let ((?v_0 (f5 f7 (f8 f9 (f10 f11 (f10 f12 f13))))) (?v_1 (f5 f6 ?v1))) (= (= ?v0 (f3 ?v_1 (f3 ?v_0 ?v2))) (= (f3 ?v_0 ?v0) (f3 ?v_1 ?v2))))))
(assert (forall ((?v0 S9)) (= (f3 f19 (f3 (f5 f7 f14) (f15 f16 ?v0))) f18)))
(assert (forall ((?v0 S9)) (= (f3 f19 (f3 (f5 f7 (f15 f16 ?v0)) f14)) f18)))
(assert (forall ((?v0 S3)) (= (f3 (f5 f6 ?v0) (f8 f9 (f10 f12 f13))) ?v0)))
(assert (forall ((?v0 S6) (?v1 S6)) (= (= (f10 f20 ?v0) (f10 f20 ?v1)) (= ?v0 ?v1))))
(assert (forall ((?v0 S6) (?v1 S6)) (= (= (f8 f9 ?v0) (f8 f9 ?v1)) (= ?v0 ?v1))))
(assert (forall ((?v0 S6) (?v1 S9)) (let ((?v_0 (f21 f22 ?v0))) (= (= ?v_0 ?v1) (= ?v1 ?v_0)))))
(assert (forall ((?v0 S6) (?v1 S6)) (let ((?v_0 (f10 f20 ?v0))) (= (= ?v_0 ?v1) (= ?v1 ?v_0)))))
(assert (forall ((?v0 S6) (?v1 S3)) (let ((?v_0 (f8 f9 ?v0))) (= (= ?v_0 ?v1) (= ?v1 ?v_0)))))
(assert (forall ((?v0 S6) (?v1 S6)) (= (= (f10 f12 ?v0) (f10 f12 ?v1)) (= ?v0 ?v1))))
(assert (= (= f13 f13) true))
(assert (forall ((?v0 S6) (?v1 S6)) (= (= (f10 f11 ?v0) (f10 f11 ?v1)) (= ?v0 ?v1))))
(assert (forall ((?v0 S6) (?v1 S6) (?v2 S6)) (= (f10 (f23 f24 (f10 f20 ?v0)) (f10 (f23 f24 (f10 f20 ?v1)) ?v2)) (f10 (f23 f24 (f10 f20 (f10 (f23 f24 ?v0) ?v1))) ?v2))))
(assert (forall ((?v0 S6) (?v1 S6) (?v2 S3)) (= (f3 (f5 f7 (f8 f9 ?v0)) (f3 (f5 f7 (f8 f9 ?v1)) ?v2)) (f3 (f5 f7 (f8 f9 (f10 (f23 f24 ?v0) ?v1))) ?v2))))
(assert (forall ((?v0 S6) (?v1 S6)) (= (f10 (f23 f24 (f10 f20 ?v0)) (f10 f20 ?v1)) (f10 f20 (f10 (f23 f24 ?v0) ?v1)))))
(assert (forall ((?v0 S6) (?v1 S6)) (= (f3 (f5 f7 (f8 f9 ?v0)) (f8 f9 ?v1)) (f8 f9 (f10 (f23 f24 ?v0) ?v1)))))
(assert (forall ((?v0 S6) (?v1 S6)) (= (f10 f20 (f10 (f23 f24 ?v0) ?v1)) (f10 (f23 f24 (f10 f20 ?v0)) (f10 f20 ?v1)))))
(assert (forall ((?v0 S6) (?v1 S6)) (= (f8 f9 (f10 (f23 f24 ?v0) ?v1)) (f3 (f5 f7 (f8 f9 ?v0)) (f8 f9 ?v1)))))
(assert (forall ((?v0 S6)) (= (= (f10 f12 ?v0) f13) false)))
(assert (forall ((?v0 S6)) (= (= f13 (f10 f12 ?v0)) false)))
(assert (forall ((?v0 S6) (?v1 S6)) (= (= (f10 f12 ?v0) (f10 f11 ?v1)) false)))
(assert (forall ((?v0 S6) (?v1 S6)) (= (= (f10 f11 ?v0) (f10 f12 ?v1)) false)))
(assert (forall ((?v0 S6)) (= (= (f10 f11 ?v0) f13) (= ?v0 f13))))
(assert (forall ((?v0 S6)) (= (= f13 (f10 f11 ?v0)) (= f13 ?v0))))
(assert (= (f10 f11 f13) f13))
(assert (not (= f14 f18)))
(assert (= (f3 f19 f18) f18))
(assert (= (f21 f22 f13) f25))
(assert (= (f10 f20 f13) f26))
(assert (= (f8 f9 f13) f18))
(assert (= (f10 f20 f13) f26))
(assert (= (f8 f9 f13) f18))
(assert (= (f3 f19 f14) f18))
(assert (forall ((?v0 S3) (?v1 S6) (?v2 S3)) (let ((?v_0 (f8 f9 ?v1))) (= (= (f3 (f5 f6 ?v0) ?v_0) ?v2) (ite (not (= ?v_0 f18)) (= ?v0 (f3 (f5 f7 ?v2) ?v_0)) (= ?v2 f18))))))
(assert (forall ((?v0 S3) (?v1 S3) (?v2 S6)) (let ((?v_0 (f8 f9 ?v2))) (= (= (f3 (f5 f6 ?v0) ?v1) ?v_0) (ite (not (= ?v1 f18)) (= ?v0 (f3 (f5 f7 ?v_0) ?v1)) (= ?v_0 f18))))))
(assert (forall ((?v0 S6) (?v1 S3) (?v2 S3)) (let ((?v_0 (f8 f9 ?v0))) (= (= ?v_0 (f3 (f5 f6 ?v1) ?v2)) (ite (not (= ?v2 f18)) (= (f3 (f5 f7 ?v_0) ?v2) ?v1) (= ?v_0 f18))))))
(assert (forall ((?v0 S3) (?v1 S3) (?v2 S6)) (let ((?v_0 (f8 f9 ?v2))) (= (= ?v0 (f3 (f5 f6 ?v1) ?v_0)) (ite (not (= ?v_0 f18)) (= (f3 (f5 f7 ?v0) ?v_0) ?v1) (= ?v0 f18))))))
(assert (forall ((?v0 S3)) (= (f3 (f5 f6 ?v0) (f8 f9 f13)) f18)))
(assert (forall ((?v0 S6)) (= (f10 (f23 f24 (f10 f20 (f10 f12 f13))) ?v0) ?v0)))
(assert (forall ((?v0 S3)) (= (f3 (f5 f7 (f8 f9 (f10 f12 f13))) ?v0) ?v0)))
(assert (forall ((?v0 S6)) (= (f10 (f23 f24 ?v0) (f10 f20 (f10 f12 f13))) ?v0)))
(assert (forall ((?v0 S3)) (= (f3 (f5 f7 ?v0) (f8 f9 (f10 f12 f13))) ?v0)))
(assert (forall ((?v0 S3)) (= (f3 (f5 f6 ?v0) (f8 f9 (f10 f12 f13))) ?v0)))
(assert (forall ((?v0 S3) (?v1 S3) (?v2 S3)) (=> (not (= ?v0 f18)) (=> (= (f3 (f5 f7 ?v1) ?v0) ?v2) (= ?v1 (f3 (f5 f6 ?v2) ?v0))))))
(assert (forall ((?v0 S3) (?v1 S3) (?v2 S3)) (=> (not (= ?v0 f18)) (=> (= ?v1 (f3 (f5 f7 ?v2) ?v0)) (= (f3 (f5 f6 ?v1) ?v0) ?v2)))))
(assert (forall ((?v0 S3) (?v1 S3) (?v2 S3) (?v3 S3)) (=> (not (= ?v0 f18)) (=> (not (= ?v1 f18)) (= (= (f3 (f5 f6 ?v2) ?v0) (f3 (f5 f6 ?v3) ?v1)) (= (f3 (f5 f7 ?v2) ?v1) (f3 (f5 f7 ?v3) ?v0)))))))
(assert (forall ((?v0 S3) (?v1 S3) (?v2 S3)) (let ((?v_0 (f5 f7 ?v0))) (=> (not (= ?v0 f18)) (= (f3 (f5 f6 (f3 ?v_0 ?v1)) (f3 ?v_0 ?v2)) (f3 (f5 f6 ?v1) ?v2))))))
(assert (forall ((?v0 S3) (?v1 S3) (?v2 S3)) (=> (not (= ?v0 f18)) (= (f3 (f5 f6 (f3 (f5 f7 ?v1) ?v0)) (f3 (f5 f7 ?v2) ?v0)) (f3 (f5 f6 ?v1) ?v2)))))
(assert (forall ((?v0 S3) (?v1 S3) (?v2 S3)) (=> (not (= ?v0 f18)) (= (= (f3 (f5 f6 ?v1) ?v0) ?v2) (= ?v1 (f3 (f5 f7 ?v2) ?v0))))))
(assert (forall ((?v0 S3) (?v1 S3) (?v2 S3)) (=> (not (= ?v0 f18)) (= (= ?v1 (f3 (f5 f6 ?v2) ?v0)) (= (f3 (f5 f7 ?v1) ?v0) ?v2)))))
(assert (forall ((?v0 S3) (?v1 S3) (?v2 S3)) (= (= (f3 (f5 f6 ?v0) ?v1) ?v2) (ite (not (= ?v1 f18)) (= ?v0 (f3 (f5 f7 ?v2) ?v1)) (= ?v2 f18)))))
(assert (forall ((?v0 S3) (?v1 S3) (?v2 S3)) (= (= ?v0 (f3 (f5 f6 ?v1) ?v2)) (ite (not (= ?v2 f18)) (= (f3 (f5 f7 ?v0) ?v2) ?v1) (= ?v0 f18)))))
(assert (= f26 (f10 f20 f13)))
(assert (= f18 (f8 f9 f13)))
(assert (forall ((?v0 S9)) (= (f27 ?v0) (f28 (f3 (f5 f6 (f3 (f5 f7 (f8 f9 (f10 f11 (f10 f12 f13)))) f14)) (f15 f16 ?v0))))))
(assert (forall ((?v0 S6) (?v1 S6)) (= (f10 (f23 f24 ?v0) ?v1) (f10 (f23 f24 ?v1) ?v0))))
(assert (forall ((?v0 S6) (?v1 S6)) (= (f10 (f23 f24 (f10 f20 ?v0)) (f10 f20 ?v1)) (f10 f20 (f10 (f23 f24 ?v0) ?v1)))))
(assert (forall ((?v0 S6) (?v1 S6) (?v2 S6)) (let ((?v_0 (f23 f24 ?v0))) (= (f10 (f23 f24 (f10 ?v_0 ?v1)) ?v2) (f10 ?v_0 (f10 (f23 f24 ?v1) ?v2))))))
(assert (= (f21 f22 f13) f25))
(assert (= f25 (f21 f22 f13)))
(assert (forall ((?v0 S6)) (= (f10 (f23 f24 f13) ?v0) f13)))
(assert (forall ((?v0 S6) (?v1 S6)) (= (f10 (f23 f24 (f10 f11 ?v0)) ?v1) (f10 f11 (f10 (f23 f24 ?v0) ?v1)))))
(assert (= f13 f26))
(assert (= f26 (f10 f20 f13)))
(assert (forall ((?v0 S9)) (let ((?v_0 (f10 f11 (f10 f11 (f10 f12 f13))))) (= (f3 (f5 f7 (f15 f16 ?v0)) (f8 f9 ?v_0)) (f15 f16 (f29 (f30 f31 (f21 f22 ?v_0)) ?v0))))))
(assert (forall ((?v0 S9)) (= (f29 (f30 f31 f25) ?v0) f25)))
(assert (forall ((?v0 S6)) (= (f10 (f23 f24 f26) ?v0) f26)))
(assert (forall ((?v0 S3)) (= (f3 (f5 f7 f18) ?v0) f18)))
(assert (forall ((?v0 S9)) (= (f29 (f30 f31 ?v0) f25) f25)))
(assert (forall ((?v0 S6)) (= (f10 (f23 f24 ?v0) f26) f26)))
(assert (forall ((?v0 S3)) (= (f3 (f5 f7 ?v0) f18) f18)))
(check-sat)
(exit)
